Maximize
  - 15 x0 + 46 x1 - 42 x2 - 16 x3 - 33 x4 + 34 x5 + 39 x6 + 10 x7 + 0 x8
   - 48 x9 - 46 x10 - 34 x11 - 15 x12 - 31 x13 - 5 x14 - 31 x15 + 49 x16
   - 9 x17 - 6 x18 - 31 x19 + [ 18 x0 ^2 + 8 x0 * x1 + 38 x0 * x2
   - 18 x0 * x3 + 60 x0 * x4 + 16 x0 * x5 - 80 x0 * x6 + 92 x0 * x7
   - 14 x0 * x8 + 46 x0 * x9 + 68 x0 * x10 + 90 x0 * x11 - 8 x0 * x12
   - 12 x0 * x13 - 28 x0 * x14 + 96 x0 * x15 + 26 x0 * x16 - 52 x0 * x17
   - 32 x0 * x18 + 50 x0 * x19 - 41 x1 ^2 - 50 x1 * x2 - 12 x1 * x3
   - 30 x1 * x4 - 22 x1 * x5 - 40 x1 * x6 + 52 x1 * x7 - 58 x1 * x8
   - 48 x1 * x9 - 30 x1 * x10 - 8 x1 * x11 + 24 x1 * x12 + 80 x1 * x13
   + 70 x1 * x14 + 78 x1 * x15 + 32 x1 * x16 - 2 x1 * x17 + 76 x1 * x18
   - 54 x1 * x19 - 4 x2 ^2 + 68 x2 * x3 - 84 x2 * x4 - 14 x2 * x6
   + 40 x2 * x7 + 44 x2 * x8 - 14 x2 * x9 - 80 x2 * x10 + 30 x2 * x11
   + 40 x2 * x12 + 88 x2 * x13 - 64 x2 * x14 - 8 x2 * x15 - 78 x2 * x16
   + 32 x2 * x17 - 12 x2 * x18 + 24 x2 * x19 - 33 x3 ^2 + 54 x3 * x4
   + 68 x3 * x5 + 28 x3 * x6 + 78 x3 * x7 + 28 x3 * x8 - 30 x3 * x9
   + 64 x3 * x10 + 72 x3 * x11 - 62 x3 * x12 + 52 x3 * x13 + 54 x3 * x14
   - 56 x3 * x15 + 24 x3 * x16 - 18 x3 * x17 + 82 x3 * x18 - 56 x3 * x19
   + 36 x4 ^2 - 10 x4 * x5 + 14 x4 * x6 + 54 x4 * x7 - 86 x4 * x8
   + 32 x4 * x9 - 98 x4 * x10 - 96 x4 * x11 + 70 x4 * x12 + 30 x4 * x13
   - 84 x4 * x15 + 44 x4 * x16 - 60 x4 * x17 - 46 x4 * x18 + 86 x4 * x19
   - 46 x5 ^2 + 12 x5 * x6 - 6 x5 * x7 - 18 x5 * x8 - 86 x5 * x9
   + 60 x5 * x10 - 74 x5 * x11 + 32 x5 * x12 + 58 x5 * x13 - 94 x5 * x14
   + 14 x5 * x15 + 58 x5 * x16 + 78 x5 * x17 + 68 x5 * x18 + 60 x5 * x19
   + 16 x6 ^2 - 14 x6 * x7 + 42 x6 * x8 - 46 x6 * x9 + 24 x6 * x11
   - 64 x6 * x12 + 10 x6 * x13 + 34 x6 * x14 - 90 x6 * x15 - 84 x6 * x16
   - 28 x6 * x17 - 54 x6 * x18 + 96 x6 * x19 + 17 x7 ^2 + 58 x7 * x8
   - 8 x7 * x9 + 16 x7 * x10 + 4 x7 * x11 - 34 x7 * x12 + 10 x7 * x13
   + 82 x7 * x14 - 94 x7 * x15 + 6 x7 * x16 - 28 x7 * x17 + 60 x7 * x18
   - 14 x7 * x19 - 29 x8 ^2 - 48 x8 * x9 + 62 x8 * x10 + 22 x8 * x11
   + 58 x8 * x12 + 78 x8 * x13 - 46 x8 * x14 + 48 x8 * x15 + 20 x8 * x16
   - 88 x8 * x17 + 94 x8 * x18 - 24 x8 * x19 + 9 x9 ^2 + 22 x9 * x10
   - 58 x9 * x11 - 30 x9 * x12 + 38 x9 * x13 + 86 x9 * x14 + 66 x9 * x15
   - 44 x9 * x16 + 24 x9 * x17 + 12 x9 * x18 + 36 x9 * x19 - 2 x10 ^2
   - 64 x10 * x11 - 70 x10 * x12 - 88 x10 * x13 - 12 x10 * x14
   + 68 x10 * x15 - 82 x10 * x16 - 24 x10 * x17 - 98 x10 * x18
   - 4 x10 * x19 + 2 x11 ^2 + 44 x11 * x12 + 98 x11 * x13 + 28 x11 * x14
   - 40 x11 * x15 - 28 x11 * x16 + 70 x11 * x17 - 64 x11 * x18
   + 44 x11 * x19 - 14 x12 ^2 - 24 x12 * x13 + 50 x12 * x14 + 10 x12 * x15
   + 76 x12 * x16 + 38 x12 * x17 + 88 x12 * x18 - 78 x12 * x19 + 10 x13 ^2
   - 34 x13 * x14 - 28 x13 * x15 - 6 x13 * x16 - 46 x13 * x17
   + 34 x13 * x18 + 34 x13 * x19 - 2 x14 ^2 + 90 x14 * x15 + 30 x14 * x16
   + 6 x14 * x17 + 40 x14 * x18 - 96 x14 * x19 + 35 x15 ^2 - 46 x15 * x16
   + 58 x15 * x17 - 28 x15 * x18 - 28 x15 * x19 + 20 x16 ^2 + 14 x16 * x17
   - 38 x16 * x18 - 12 x16 * x19 - 41 x17 ^2 + 50 x17 * x18 - 42 x17 * x19
   + 10 x18 ^2 - 6 x18 * x19 + 49 x19 ^2 ] / 2 
Subject To
Bounds
 x0 <= 1
 x1 <= 1
 x2 <= 1
 x3 <= 1
 x4 <= 1
 x5 <= 1
 x6 <= 1
 x7 <= 1
 x8 <= 1
 x9 <= 1
 x10 <= 1
 x11 <= 1
 x12 <= 1
 x13 <= 1
 x14 <= 1
 x15 <= 1
 x16 <= 1
 x17 <= 1
 x18 <= 1
 x19 <= 1
End
